145
0 12 96 41 138 95 71 139 39 14 
66 18 104 98 87 115 61 53 25 38 
36 100 79 46 65 126 121 134 1 50 
82 34 22 91 62 120 17 72 140 16 
77 129 67 99 49 47 106 107 40 124 
141 112 70 93 84 3 52 33 85 110 
8 42 108 114 63 26 133 113 78 4 
94 32 45 9 19 128 73 30 122 20 
29 81 35 109 2 143 31 60 21 64 
118 137 68 5 111 90 92 69 144 130 
44 135 23 83 74 76 28 24 86 43 
54 10 132 59 101 116 51 7 102 88 
117 123 56 13 48 142 89 97 58 55 
131 136 11 103 15 127 57 119 27 75 
125 37 105 6 80 
